(set-logic LIA)
(synth-fun next ((water Int) (methane Int) (pump Bool) ) Int
	((Start Int) (Var Int) (StartBool Bool))
	((Start Int (
				 4
				 (ite StartBool Start Start)))

	(Var Int (
			 1
			 2
			 17
			 23
			 50
			 580
			 water
			 methane
			 (+ Var Var)						
			 (- Var Var)						
			 (* Var Var)))

	(StartBool Bool (
				 	 pump
					(= Var Var)						
					(>= Var Var)						
					(<= Var Var)						
					(and StartBool StartBool)			
					(or  StartBool StartBool)				
					(not StartBool)))))

(constraint (= (next 75 595 false ) 4))
(constraint (= (next 64 592 false ) 4))
(constraint (= (next 30 574 false ) 4))
(constraint (= (next 31 558 false ) 4))

(check-synth)
